NAME: random-13-6777
TYPE: TSP
COMMENT: size=13 seed=6777
DIMENSION: 28
EDGE_WEIGHT_TYPE: EUC_2D
NODE_COORD_SECTION
+0 39 996
-0 39 996
+1 940 843
-1 942 6
+2 30 795
-2 974 765
+3 27 236
-3 685 748
+4 523 789
-4 774 80
+5 68 175
-5 716 654
+6 222 151
-6 842 149
+7 139 398
-7 26 47
+8 458 772
-8 134 913
+9 994 251
-9 631 592
+10 281 418
-10 2 137
+11 340 541
-11 996 942
+12 82 210
-12 259 542
+13 799 127
-13 238 914
PRECEDENCE_SECTION
+0 -0
+1 -1
+2 -2
+3 -3
+4 -4
+5 -5
+6 -6
+7 -7
+8 -8
+9 -9
+10 -10
+11 -11
+12 -12
+13 -13
EOF
